\ENCODING=ISO-8859-1
\Problem name: IloCplex

Minimize
 obj1: x_a_0 + x_a_1 + 2 x_a_2 + x_a_3 + 2 x_a_4 + 2 x_a_5 + 2 x_a_6 + 2 x_a_7
       + x_a_8 + 3 x_a_9 + 3 x_a_10 + 3 x_a_11 + 3 x_a_12 + x_a_13 + x_a_14
       + x_a_15 + 2 x_a_16 + 2 x_a_17 + x_a_18 + x_a_19 + 2 x_a_20 + 2 x_a_21
       + x_a_22 + x_a_23 + 2 x_a_24 + 3 x_a_25 + 2 x_a_26 + x_a_27 + x_a_28
       + x_a_29 + 2 x_a_30 + x_a_31 + 2 x_a_32 + x_a_33 + 2 x_a_34 + 2 x_a_35
       + x_a_36 + x_a_37 + 2 x_a_38 + 2 x_a_39 + 3 x_a_40 + 2 x_a_41 + 2 x_a_42
       + 3 x_a_43 + x_a_44 + 2 x_a_45 + 3 x_a_46 + 2 x_a_47 + 2 x_a_48
       + 3 x_a_49 + x_a_50 + x_a_51 + 3 x_a_52 + x_a_53 + 2 x_a_54 + x_a_55
       + 2 x_a_56 + 3 x_a_57 + x_a_58 + 2 x_a_59 + 2 x_a_60 + x_a_61 + x_a_62
       + 3 x_a_63 + 2 x_a_64 + 2 x_a_65 + 3 x_a_66 + 3 x_a_67 + 3 x_a_68
       + 2 x_a_69 + x_a_70 + 2 x_a_71 + 3 x_a_72 + x_a_73 + x_a_74 + x_a_75
       + 2 x_a_76 + x_a_77 + 2 x_a_78 + 2 x_a_79 + 3 x_a_80 + x_a_81 + x_a_82
       + x_a_83 + 3 x_a_84 + x_a_85 + x_a_86 + 2 x_a_87 + x_a_88 + 2 x_a_89
       + 2 x_a_90 + 3 x_a_91 + x_a_92 + 2 x_a_93 + x_a_94 + 2 x_a_95 + 3 x_a_96
       + 3 x_a_97 + 2 x_a_98 + x_a_99 + x_a_100 + x_a_101 + 2 x_a_102
       + 3 x_a_103 + 2 x_a_104 + x_a_105 + 3 x_a_106 + 3 x_a_107 + x_a_108
       + 3 x_a_109 + 2 x_a_110 + 2 x_a_111 + 3 x_a_112 + 2 x_a_113 + 3 x_a_114
       + 3 x_a_115 + 2 x_a_116 + 3 x_a_117 + x_a_118 + 3 x_a_119 + 2 x_a_120
       + 3 x_a_121 + 2 x_a_122 + 3 x_a_123 + x_a_124 + x_a_125 + x_a_126
       + 2 x_a_127 + x_a_128 + 2 x_a_129 + 3 x_a_130 + x_a_131 + x_a_132
       + 2 x_a_133 + 2 x_a_134 + 2 x_a_135 + 3 x_a_136 + x_a_137 + x_a_138
       + 3 x_a_139 + 2 x_a_140 + x_a_141 + 2 x_a_142 + 3 x_a_143 + 2 x_a_144
       + 3 x_a_145 + 3 x_a_146 + x_a_147 + x_a_148 + 3 x_a_149 + 3 x_a_150
       + 2 x_a_151 + 2 x_a_152 + 2 x_a_153 + x_a_154 + 2 x_a_155 + 3 x_a_156
       + 2 x_a_157 + 2 x_a_158 + 2 x_a_159 + 3 x_a_160 + 2 x_a_161 + 3 x_a_162
       + 3 x_a_163 + 2 x_a_164 + 2 x_a_165 + x_a_166 + x_a_167 + 3 x_a_168
       + 2 x_a_169 + x_a_170 + x_a_171 + 2 x_a_172 + 3 x_a_173 + 3 x_a_174
       + 2 x_a_175 + x_a_176 + 3 x_a_177 + 2 x_a_178 + 2 x_a_179 + 3 x_a_180
       + 3 x_a_181 + 2 x_a_182 + 2 x_a_183 + x_a_184 + x_a_185 + x_a_186
       + 3 x_a_187 + 2 x_a_188 + 3 x_a_189 + 2 x_a_190 + 2 x_a_191 + x_a_192
       + x_a_193 + x_a_194 + 3 x_a_195 + 3 x_a_196 + 2 x_a_197 + 2 x_a_198
       + x_a_199 + 3 x_a_200 + 3 x_a_201 + 3 x_a_202 + 2 x_a_203 + 2 x_a_204
       + x_a_205 + 2 x_a_206 + x_a_207 + 2 x_a_208 + 2 x_a_209 + x_a_210
       + 2 x_a_211 + x_a_212 + 3 x_a_213 + 3 x_a_214 + 3 x_a_215 + x_a_216
       + 2 x_a_217 + x_a_218 + x_a_219 + x_a_220 + 3 x_a_221 + 3 x_a_222
       + 3 x_a_223 + 3 x_a_224 + 3 x_a_225 + 2 x_a_226 + 1000000000 x_a_227
       + 1000000000 x_a_228 + 1000000000 x_a_229 + 1000000000 x_a_230
       + 1000000000 x_a_231 + 1000000000 x_a_232 + 1000000000 x_a_233
       + 1000000000 x_a_234 + 1000000000 x_a_235 + 1000000000 x_a_236
       + 1000000000 x_a_237 + 1000000000 x_a_238 + 1000000000 x_a_239
       + 1000000000 x_a_240 + 1000000000 x_a_241 + 1000000000 x_a_242
       + 10000 x_a_243
Subject To
 c1:   y_a_227 + y_a_228 + y_a_229 + y_a_230 + y_a_231 + y_a_232 + y_a_233
       + y_a_234 <= 566.1
 c2:   y_a_0 + y_a_1 + y_a_2 + y_a_3 + y_a_4 + y_a_5 + y_a_6 + y_a_7 + y_a_8
       + y_a_9 + y_a_10 + y_a_11 + y_a_12  = 0
 c3:   - y_a_0 + y_a_13 + y_a_14 + y_a_15 + y_a_16 + y_a_17 + y_a_18 + y_a_19
       + y_a_20 + y_a_21 + y_a_22 + y_a_23 + y_a_235 + y_a_236  = 0
 c4:   - y_a_1 + y_a_24 + y_a_25 + y_a_26 + y_a_27 + y_a_28 + y_a_29 + y_a_30
       + y_a_31 + y_a_32 + y_a_33 + y_a_34  = 0
 c5:   - y_a_13 - y_a_24 + y_a_35 + y_a_36 + y_a_37 + y_a_38 + y_a_39 + y_a_40
       + y_a_41 + y_a_42 + y_a_43 + y_a_44 + y_a_45  = 0
 c6:   - y_a_229 - y_a_2 - y_a_14 - y_a_35 + y_a_46 + y_a_47 + y_a_48 + y_a_49
       + y_a_50 + y_a_51 + y_a_52  = 0
 c7:   - y_a_232 - y_a_3 - y_a_15 + y_a_53 + y_a_54 + y_a_55 + y_a_56 + y_a_57
       + y_a_58 + y_a_59 + y_a_60 + y_a_61 + y_a_62 + y_a_63 + y_a_64  = 0
 c8:   - y_a_25 - y_a_46 - y_a_53 + y_a_65 + y_a_66 + y_a_67 + y_a_68 + y_a_69
       + y_a_70 + y_a_71 + y_a_72 + y_a_73 + y_a_242  = 0
 c9:   - y_a_4 - y_a_16 - y_a_26 + y_a_74 + y_a_75 + y_a_76 + y_a_77 + y_a_78
       + y_a_79 + y_a_80 + y_a_81 + y_a_82 + y_a_83 + y_a_84 + y_a_240  = 0
 c10:  - y_a_17 - y_a_27 - y_a_74 + y_a_85 + y_a_86 + y_a_87 + y_a_88 + y_a_89
       + y_a_90 + y_a_91 + y_a_92 + y_a_93  = 0
 c11:  - y_a_47 - y_a_75 + y_a_94 + y_a_95 + y_a_96 + y_a_97 + y_a_98 + y_a_99
       + y_a_100  = 0
 c12:  - y_a_36 - y_a_54 - y_a_94 + y_a_101 + y_a_102 + y_a_103 + y_a_104
       + y_a_105 + y_a_106 + y_a_107 + y_a_108 + y_a_109 + y_a_110  = 0
 c13:  - y_a_5 - y_a_37 - y_a_55 - y_a_76 - y_a_101 + y_a_111 + y_a_112
       + y_a_113 + y_a_114 + y_a_115  = 0
 c14:  - y_a_38 - y_a_65 - y_a_85 + y_a_116 + y_a_117 + y_a_118 + y_a_119
       + y_a_120 + y_a_121 + y_a_122 + y_a_123 + y_a_124 + y_a_125  = 0
 c15:  - y_a_48 - y_a_56 - y_a_111 + y_a_126 + y_a_127 + y_a_128 + y_a_129
       + y_a_130 + y_a_131 + y_a_132 + y_a_133  = 0
 c16:  - y_a_28 - y_a_39 - y_a_66 - y_a_77 - y_a_86 - y_a_95 - y_a_102
       - y_a_116 + y_a_134 + y_a_135 + y_a_136 + y_a_137 + y_a_138 + y_a_139
       + y_a_140 + y_a_141  = 0
 c17:  - y_a_78 - y_a_96 - y_a_103 - y_a_126 - y_a_134 + y_a_142 + y_a_143
       + y_a_144 + y_a_145 + y_a_146 + y_a_147 + y_a_148 + y_a_149  = 0
 c18:  - y_a_57 - y_a_104 - y_a_127 + y_a_150 + y_a_151 + y_a_152  = 0
 c19:  - y_a_231 - y_a_6 - y_a_58 - y_a_79 - y_a_117 + y_a_153 + y_a_154
       + y_a_155 + y_a_156 + y_a_157 + y_a_158 + y_a_159 + y_a_160  = 0
 c20:  - y_a_7 - y_a_118 - y_a_128 - y_a_142 - y_a_150 + y_a_161 + y_a_162
       + y_a_163 + y_a_164 + y_a_165 + y_a_166 + y_a_167  = 0
 c21:  - y_a_234 - y_a_8 - y_a_18 - y_a_49 - y_a_97 - y_a_119 - y_a_143
       - y_a_153 - y_a_161 + y_a_168 + y_a_169 + y_a_170 + y_a_171 + y_a_172
       + y_a_173 + y_a_174  = 0
 c22:  - y_a_233 - y_a_40 - y_a_59 - y_a_80 - y_a_87 - y_a_144 - y_a_154
       + y_a_175 + y_a_176 + y_a_177 + y_a_178 + y_a_179 + y_a_180  = 0
 c23:  - y_a_60 - y_a_88 - y_a_105 - y_a_120 - y_a_135 - y_a_155 - y_a_162
       + y_a_181 + y_a_182 + y_a_183 + y_a_184 + y_a_185 + y_a_186 + y_a_239
        = 0
 c24:  - y_a_19 - y_a_106 - y_a_156 - y_a_163 - y_a_181 + y_a_187 + y_a_188
       + y_a_189  = 0
 c25:  - y_a_227 - y_a_9 - y_a_67 - y_a_107 - y_a_112 - y_a_129 - y_a_157
       - y_a_168 + y_a_190 + y_a_191 + y_a_192 + y_a_193 + y_a_194 + y_a_195
       + y_a_196  = 0
 c26:  - y_a_29 - y_a_50 - y_a_61 - y_a_81 - y_a_113 - y_a_121 - y_a_175
       - y_a_187 - y_a_190 + y_a_197 + y_a_198 + y_a_199 + y_a_200  = 0
 c27:  - y_a_20 - y_a_82 - y_a_130 - y_a_136 - y_a_158 - y_a_169 - y_a_176
       - y_a_182 + y_a_201 + y_a_202 + y_a_203  = 0
 c28:  - y_a_10 - y_a_21 - y_a_89 - y_a_114 - y_a_145 - y_a_151 - y_a_177
       - y_a_197 + y_a_204 + y_a_205 + y_a_206 + y_a_207  = 0
 c29:  - y_a_22 - y_a_30 - y_a_90 - y_a_98 - y_a_108 - y_a_122 - y_a_137
       - y_a_146 - y_a_164 - y_a_170 - y_a_178 - y_a_198 + y_a_208 + y_a_209
       + y_a_210 + y_a_211  = 0
 c30:  - y_a_11 - y_a_31 - y_a_51 - y_a_83 - y_a_91 - y_a_147 - y_a_171
       - y_a_191 - y_a_204 - y_a_208 + y_a_212 + y_a_213  = 0
 c31:  - y_a_228 - y_a_68 - y_a_109 - y_a_123 - y_a_131 - y_a_138 - y_a_183
       + y_a_214  = 0
 c32:  - y_a_41 - y_a_69 - y_a_99 - y_a_110 - y_a_124 - y_a_132 - y_a_148
       - y_a_172 - y_a_184 - y_a_192 - y_a_209 + y_a_215 + y_a_216 + y_a_217
        = 0
 c33:  - y_a_32 - y_a_42 - y_a_62 - y_a_70 - y_a_92 - y_a_193 - y_a_212
       - y_a_215 + y_a_218 + y_a_219 + y_a_238  = 0
 c34:  - y_a_33 - y_a_100 - y_a_165 - y_a_179 - y_a_188 - y_a_194 - y_a_205
       + y_a_220 + y_a_221 + y_a_222 + y_a_241  = 0
 c35:  - y_a_43 - y_a_52 - y_a_63 - y_a_71 - y_a_139 - y_a_149 - y_a_173
       - y_a_195 - y_a_216 - y_a_220 + y_a_223  = 0
 c36:  - y_a_230 - y_a_23 - y_a_72 - y_a_125 - y_a_133 - y_a_140 - y_a_152
       - y_a_159 - y_a_166 - y_a_174 - y_a_199 - y_a_201 - y_a_213 - y_a_221
       + y_a_224  = 0
 c37:  - y_a_44 - y_a_141 - y_a_185 - y_a_202 - y_a_206 - y_a_210 - y_a_218
       + y_a_225  = 0
 c38:  - y_a_45 - y_a_73 - y_a_84 - y_a_93 - y_a_160 - y_a_180 - y_a_186
       - y_a_189 - y_a_200 - y_a_211 - y_a_219 - y_a_224 + y_a_226 + y_a_237
        = 0
 c39:  - y_a_12 - y_a_34 - y_a_64 - y_a_115 - y_a_167 - y_a_196 - y_a_203
       - y_a_207 - y_a_214 - y_a_217 - y_a_222 - y_a_223 - y_a_225 - y_a_226
        = 0
 c40:  y_a_227 + y_a_228 + y_a_229 + y_a_230 + y_a_231 + y_a_232 + y_a_233
       + y_a_234 - y_a_243  = 0
 c41:  - y_a_235 - y_a_236 - y_a_242 - y_a_240 - y_a_239 - y_a_238 - y_a_241
       - y_a_237 + y_a_243  = 0
 c42:  y_a_0 + 33 x_a_0 <= 33
 c43:  y_a_1 + 28 x_a_1 <= 28
 c44:  y_a_2 + 49 x_a_2 <= 49
 c45:  y_a_3 + 19 x_a_3 <= 19
 c46:  y_a_4 + 11 x_a_4 <= 11
 c47:  y_a_5 + 31 x_a_5 <= 31
 c48:  y_a_6 + 26 x_a_6 <= 26
 c49:  y_a_7 + 3 x_a_7 <= 3
 c50:  y_a_8 + 22 x_a_8 <= 22
 c51:  y_a_9 + 12 x_a_9 <= 12
 c52:  y_a_10 + 8 x_a_10 <= 8
 c53:  y_a_11 + 33 x_a_11 <= 33
 c54:  y_a_12 + 19 x_a_12 <= 19
 c55:  y_a_13 + 7 x_a_13 <= 7
 c56:  y_a_14 + x_a_14 <= 1
 c57:  y_a_15 + 37 x_a_15 <= 37
 c58:  y_a_16 + 7 x_a_16 <= 7
 c59:  y_a_17 + 27 x_a_17 <= 27
 c60:  y_a_18 + 6 x_a_18 <= 6
 c61:  y_a_19 + 21 x_a_19 <= 21
 c62:  y_a_20 + 43 x_a_20 <= 43
 c63:  y_a_21 + 30 x_a_21 <= 30
 c64:  y_a_22 + 37 x_a_22 <= 37
 c65:  y_a_23 + 4 x_a_23 <= 4
 c66:  y_a_24 + 37 x_a_24 <= 37
 c67:  y_a_25 + 14 x_a_25 <= 14
 c68:  y_a_26 + 19 x_a_26 <= 19
 c69:  y_a_27 + 41 x_a_27 <= 41
 c70:  y_a_28 + 47 x_a_28 <= 47
 c71:  y_a_29 + 7 x_a_29 <= 7
 c72:  y_a_30 + 30 x_a_30 <= 30
 c73:  y_a_31 + 10 x_a_31 <= 10
 c74:  y_a_32 + 11 x_a_32 <= 11
 c75:  y_a_33 + 6 x_a_33 <= 6
 c76:  y_a_34 + 8 x_a_34 <= 8
 c77:  y_a_35 + 21 x_a_35 <= 21
 c78:  y_a_36 + 33 x_a_36 <= 33
 c79:  y_a_37 + 43 x_a_37 <= 43
 c80:  y_a_38 + 41 x_a_38 <= 41
 c81:  y_a_39 + 14 x_a_39 <= 14
 c82:  y_a_40 + 2 x_a_40 <= 2
 c83:  y_a_41 + 11 x_a_41 <= 11
 c84:  y_a_42 + 35 x_a_42 <= 35
 c85:  y_a_43 + 25 x_a_43 <= 25
 c86:  y_a_44 + 15 x_a_44 <= 15
 c87:  y_a_45 + 28 x_a_45 <= 28
 c88:  y_a_46 + 7 x_a_46 <= 7
 c89:  y_a_47 + 15 x_a_47 <= 15
 c90:  y_a_48 + 14 x_a_48 <= 14
 c91:  y_a_49 + 46 x_a_49 <= 46
 c92:  y_a_50 + 42 x_a_50 <= 42
 c93:  y_a_51 + 9 x_a_51 <= 9
 c94:  y_a_52 + 34 x_a_52 <= 34
 c95:  y_a_53 + 49 x_a_53 <= 49
 c96:  y_a_54 + 42 x_a_54 <= 42
 c97:  y_a_55 + 41 x_a_55 <= 41
 c98:  y_a_56 + 13 x_a_56 <= 13
 c99:  y_a_57 + 31 x_a_57 <= 31
 c100: y_a_58 + 14 x_a_58 <= 14
 c101: y_a_59 + 22 x_a_59 <= 22
 c102: y_a_60 + 22 x_a_60 <= 22
 c103: y_a_61 + 25 x_a_61 <= 25
 c104: y_a_62 + 33 x_a_62 <= 33
 c105: y_a_63 + 21 x_a_63 <= 21
 c106: y_a_64 + 25 x_a_64 <= 25
 c107: y_a_65 + 21 x_a_65 <= 21
 c108: y_a_66 + 20 x_a_66 <= 20
 c109: y_a_67 + 12 x_a_67 <= 12
 c110: y_a_68 + 8 x_a_68 <= 8
 c111: y_a_69 + 41 x_a_69 <= 41
 c112: y_a_70 + 30 x_a_70 <= 30
 c113: y_a_71 + 47 x_a_71 <= 47
 c114: y_a_72 + 41 x_a_72 <= 41
 c115: y_a_73 + 17 x_a_73 <= 17
 c116: y_a_74 + 5 x_a_74 <= 5
 c117: y_a_75 + 40 x_a_75 <= 40
 c118: y_a_76 + 46 x_a_76 <= 46
 c119: y_a_77 + 6 x_a_77 <= 6
 c120: y_a_78 + 5 x_a_78 <= 5
 c121: y_a_79 + 31 x_a_79 <= 31
 c122: y_a_80 + 18 x_a_80 <= 18
 c123: y_a_81 + 40 x_a_81 <= 40
 c124: y_a_82 + 8 x_a_82 <= 8
 c125: y_a_83 + 40 x_a_83 <= 40
 c126: y_a_84 + x_a_84 <= 1
 c127: y_a_85 + 9 x_a_85 <= 9
 c128: y_a_86 + 34 x_a_86 <= 34
 c129: y_a_87 + 29 x_a_87 <= 29
 c130: y_a_88 + 9 x_a_88 <= 9
 c131: y_a_89 + 15 x_a_89 <= 15
 c132: y_a_90 + 4 x_a_90 <= 4
 c133: y_a_91 + 3 x_a_91 <= 3
 c134: y_a_92 + 12 x_a_92 <= 12
 c135: y_a_93 + 39 x_a_93 <= 39
 c136: y_a_94 + 18 x_a_94 <= 18
 c137: y_a_95 + 27 x_a_95 <= 27
 c138: y_a_96 + 31 x_a_96 <= 31
 c139: y_a_97 + 11 x_a_97 <= 11
 c140: y_a_98 + 15 x_a_98 <= 15
 c141: y_a_99 + 37 x_a_99 <= 37
 c142: y_a_100 + 31 x_a_100 <= 31
 c143: y_a_101 + 46 x_a_101 <= 46
 c144: y_a_102 + 11 x_a_102 <= 11
 c145: y_a_103 + 42 x_a_103 <= 42
 c146: y_a_104 + 49 x_a_104 <= 49
 c147: y_a_105 + 31 x_a_105 <= 31
 c148: y_a_106 + 47 x_a_106 <= 47
 c149: y_a_107 + 39 x_a_107 <= 39
 c150: y_a_108 + 18 x_a_108 <= 18
 c151: y_a_109 + 32 x_a_109 <= 32
 c152: y_a_110 + 22 x_a_110 <= 22
 c153: y_a_111 + 24 x_a_111 <= 24
 c154: y_a_112 + 29 x_a_112 <= 29
 c155: y_a_113 + 17 x_a_113 <= 17
 c156: y_a_114 + 12 x_a_114 <= 12
 c157: y_a_115 + 24 x_a_115 <= 24
 c158: y_a_116 + 4 x_a_116 <= 4
 c159: y_a_117 + 30 x_a_117 <= 30
 c160: y_a_118 + x_a_118 <= 1
 c161: y_a_119 + 10 x_a_119 <= 10
 c162: y_a_120 + 9 x_a_120 <= 9
 c163: y_a_121 + 31 x_a_121 <= 31
 c164: y_a_122 + 17 x_a_122 <= 17
 c165: y_a_123 + 19 x_a_123 <= 19
 c166: y_a_124 + 20 x_a_124 <= 20
 c167: y_a_125 + 7 x_a_125 <= 7
 c168: y_a_126 + 44 x_a_126 <= 44
 c169: y_a_127 + 22 x_a_127 <= 22
 c170: y_a_128 + 31 x_a_128 <= 31
 c171: y_a_129 + 14 x_a_129 <= 14
 c172: y_a_130 + 7 x_a_130 <= 7
 c173: y_a_131 + 16 x_a_131 <= 16
 c174: y_a_132 + 41 x_a_132 <= 41
 c175: y_a_133 + 19 x_a_133 <= 19
 c176: y_a_134 + 36 x_a_134 <= 36
 c177: y_a_135 + 29 x_a_135 <= 29
 c178: y_a_136 + 18 x_a_136 <= 18
 c179: y_a_137 + 36 x_a_137 <= 36
 c180: y_a_138 + 17 x_a_138 <= 17
 c181: y_a_139 + 6 x_a_139 <= 6
 c182: y_a_140 + 46 x_a_140 <= 46
 c183: y_a_141 + 2 x_a_141 <= 2
 c184: y_a_142 + 29 x_a_142 <= 29
 c185: y_a_143 + 12 x_a_143 <= 12
 c186: y_a_144 + 5 x_a_144 <= 5
 c187: y_a_145 + 23 x_a_145 <= 23
 c188: y_a_146 + 23 x_a_146 <= 23
 c189: y_a_147 + 48 x_a_147 <= 48
 c190: y_a_148 + 32 x_a_148 <= 32
 c191: y_a_149 + 19 x_a_149 <= 19
 c192: y_a_150 + 4 x_a_150 <= 4
 c193: y_a_151 + 18 x_a_151 <= 18
 c194: y_a_152 + 46 x_a_152 <= 46
 c195: y_a_153 + 36 x_a_153 <= 36
 c196: y_a_154 + 34 x_a_154 <= 34
 c197: y_a_155 + 47 x_a_155 <= 47
 c198: y_a_156 + 24 x_a_156 <= 24
 c199: y_a_157 + 14 x_a_157 <= 14
 c200: y_a_158 + 43 x_a_158 <= 43
 c201: y_a_159 + 5 x_a_159 <= 5
 c202: y_a_160 + 34 x_a_160 <= 34
 c203: y_a_161 + 8 x_a_161 <= 8
 c204: y_a_162 + 39 x_a_162 <= 39
 c205: y_a_163 + 13 x_a_163 <= 13
 c206: y_a_164 + 30 x_a_164 <= 30
 c207: y_a_165 + 5 x_a_165 <= 5
 c208: y_a_166 + 43 x_a_166 <= 43
 c209: y_a_167 + 38 x_a_167 <= 38
 c210: y_a_168 + 27 x_a_168 <= 27
 c211: y_a_169 + 25 x_a_169 <= 25
 c212: y_a_170 + 31 x_a_170 <= 31
 c213: y_a_171 + 20 x_a_171 <= 20
 c214: y_a_172 + x_a_172 <= 1
 c215: y_a_173 + 42 x_a_173 <= 42
 c216: y_a_174 + 35 x_a_174 <= 35
 c217: y_a_175 + 47 x_a_175 <= 47
 c218: y_a_176 + 38 x_a_176 <= 38
 c219: y_a_177 + 30 x_a_177 <= 30
 c220: y_a_178 + 23 x_a_178 <= 23
 c221: y_a_179 + 15 x_a_179 <= 15
 c222: y_a_180 + 45 x_a_180 <= 45
 c223: y_a_181 + 3 x_a_181 <= 3
 c224: y_a_182 + 4 x_a_182 <= 4
 c225: y_a_183 + 5 x_a_183 <= 5
 c226: y_a_184 + 15 x_a_184 <= 15
 c227: y_a_185 + 30 x_a_185 <= 30
 c228: y_a_186 + 35 x_a_186 <= 35
 c229: y_a_187 + 30 x_a_187 <= 30
 c230: y_a_188 + 28 x_a_188 <= 28
 c231: y_a_189 + 4 x_a_189 <= 4
 c232: y_a_190 + 22 x_a_190 <= 22
 c233: y_a_191 + 45 x_a_191 <= 45
 c234: y_a_192 + 9 x_a_192 <= 9
 c235: y_a_193 + 49 x_a_193 <= 49
 c236: y_a_194 + 46 x_a_194 <= 46
 c237: y_a_195 + 37 x_a_195 <= 37
 c238: y_a_196 + 22 x_a_196 <= 22
 c239: y_a_197 + 45 x_a_197 <= 45
 c240: y_a_198 + 23 x_a_198 <= 23
 c241: y_a_199 + 29 x_a_199 <= 29
 c242: y_a_200 + 6 x_a_200 <= 6
 c243: y_a_201 + 42 x_a_201 <= 42
 c244: y_a_202 + 26 x_a_202 <= 26
 c245: y_a_203 + 22 x_a_203 <= 22
 c246: y_a_204 + 32 x_a_204 <= 32
 c247: y_a_205 + 49 x_a_205 <= 49
 c248: y_a_206 + 32 x_a_206 <= 32
 c249: y_a_207 + 48 x_a_207 <= 48
 c250: y_a_208 + 20 x_a_208 <= 20
 c251: y_a_209 + 19 x_a_209 <= 19
 c252: y_a_210 + 20 x_a_210 <= 20
 c253: y_a_211 + 18 x_a_211 <= 18
 c254: y_a_212 + 8 x_a_212 <= 8
 c255: y_a_213 + 20 x_a_213 <= 20
 c256: y_a_214 + 7 x_a_214 <= 7
 c257: y_a_215 + 20 x_a_215 <= 20
 c258: y_a_216 + 39 x_a_216 <= 39
 c259: y_a_217 + 22 x_a_217 <= 22
 c260: y_a_218 + 35 x_a_218 <= 35
 c261: y_a_219 + 4 x_a_219 <= 4
 c262: y_a_220 + 43 x_a_220 <= 43
 c263: y_a_221 + 5 x_a_221 <= 5
 c264: y_a_222 + 3 x_a_222 <= 3
 c265: y_a_223 + 29 x_a_223 <= 29
 c266: y_a_224 + 48 x_a_224 <= 48
 c267: y_a_225 + 22 x_a_225 <= 22
 c268: y_a_226 + 17 x_a_226 <= 17
 c269: y_a_227 + 50000000 x_a_227 <= 50000000
 c270: y_a_228 + 50000000 x_a_228 <= 50000000
 c271: y_a_229 + 50000000 x_a_229 <= 50000000
 c272: y_a_230 + 50000000 x_a_230 <= 50000000
 c273: y_a_231 + 50000000 x_a_231 <= 50000000
 c274: y_a_232 + 50000000 x_a_232 <= 50000000
 c275: y_a_233 + 50000000 x_a_233 <= 50000000
 c276: y_a_234 + 50000000 x_a_234 <= 50000000
 c277: y_a_235 + 50000000 x_a_235 <= 50000000
 c278: y_a_236 + 50000000 x_a_236 <= 50000000
 c279: y_a_237 + 50000000 x_a_237 <= 50000000
 c280: y_a_238 + 50000000 x_a_238 <= 50000000
 c281: y_a_239 + 50000000 x_a_239 <= 50000000
 c282: y_a_240 + 50000000 x_a_240 <= 50000000
 c283: y_a_241 + 50000000 x_a_241 <= 50000000
 c284: y_a_242 + 50000000 x_a_242 <= 50000000
 c285: y_a_243 + 10000 x_a_243 <= 10000
Bounds
 0 <= y_a_227 <= 50000000
 0 <= y_a_228 <= 50000000
 0 <= y_a_229 <= 50000000
 0 <= y_a_230 <= 50000000
 0 <= y_a_231 <= 50000000
 0 <= y_a_232 <= 50000000
 0 <= y_a_233 <= 50000000
 0 <= y_a_234 <= 50000000
 0 <= y_a_0 <= 33
 0 <= y_a_1 <= 28
 0 <= y_a_2 <= 49
 0 <= y_a_3 <= 19
 0 <= y_a_4 <= 11
 0 <= y_a_5 <= 31
 0 <= y_a_6 <= 26
 0 <= y_a_7 <= 3
 0 <= y_a_8 <= 22
 0 <= y_a_9 <= 12
 0 <= y_a_10 <= 8
 0 <= y_a_11 <= 33
 0 <= y_a_12 <= 19
 0 <= y_a_13 <= 7
 0 <= y_a_14 <= 1
 0 <= y_a_15 <= 37
 0 <= y_a_16 <= 7
 0 <= y_a_17 <= 27
 0 <= y_a_18 <= 6
 0 <= y_a_19 <= 21
 0 <= y_a_20 <= 43
 0 <= y_a_21 <= 30
 0 <= y_a_22 <= 37
 0 <= y_a_23 <= 4
 0 <= y_a_235 <= 50000000
 0 <= y_a_236 <= 50000000
 0 <= y_a_24 <= 37
 0 <= y_a_25 <= 14
 0 <= y_a_26 <= 19
 0 <= y_a_27 <= 41
 0 <= y_a_28 <= 47
 0 <= y_a_29 <= 7
 0 <= y_a_30 <= 30
 0 <= y_a_31 <= 10
 0 <= y_a_32 <= 11
 0 <= y_a_33 <= 6
 0 <= y_a_34 <= 8
 0 <= y_a_35 <= 21
 0 <= y_a_36 <= 33
 0 <= y_a_37 <= 43
 0 <= y_a_38 <= 41
 0 <= y_a_39 <= 14
 0 <= y_a_40 <= 2
 0 <= y_a_41 <= 11
 0 <= y_a_42 <= 35
 0 <= y_a_43 <= 25
 0 <= y_a_44 <= 15
 0 <= y_a_45 <= 28
 0 <= y_a_46 <= 7
 0 <= y_a_47 <= 15
 0 <= y_a_48 <= 14
 0 <= y_a_49 <= 46
 0 <= y_a_50 <= 42
 0 <= y_a_51 <= 9
 0 <= y_a_52 <= 34
 0 <= y_a_53 <= 49
 0 <= y_a_54 <= 42
 0 <= y_a_55 <= 41
 0 <= y_a_56 <= 13
 0 <= y_a_57 <= 31
 0 <= y_a_58 <= 14
 0 <= y_a_59 <= 22
 0 <= y_a_60 <= 22
 0 <= y_a_61 <= 25
 0 <= y_a_62 <= 33
 0 <= y_a_63 <= 21
 0 <= y_a_64 <= 25
 0 <= y_a_65 <= 21
 0 <= y_a_66 <= 20
 0 <= y_a_67 <= 12
 0 <= y_a_68 <= 8
 0 <= y_a_69 <= 41
 0 <= y_a_70 <= 30
 0 <= y_a_71 <= 47
 0 <= y_a_72 <= 41
 0 <= y_a_73 <= 17
 0 <= y_a_242 <= 50000000
 0 <= y_a_74 <= 5
 0 <= y_a_75 <= 40
 0 <= y_a_76 <= 46
 0 <= y_a_77 <= 6
 0 <= y_a_78 <= 5
 0 <= y_a_79 <= 31
 0 <= y_a_80 <= 18
 0 <= y_a_81 <= 40
 0 <= y_a_82 <= 8
 0 <= y_a_83 <= 40
 0 <= y_a_84 <= 1
 0 <= y_a_240 <= 50000000
 0 <= y_a_85 <= 9
 0 <= y_a_86 <= 34
 0 <= y_a_87 <= 29
 0 <= y_a_88 <= 9
 0 <= y_a_89 <= 15
 0 <= y_a_90 <= 4
 0 <= y_a_91 <= 3
 0 <= y_a_92 <= 12
 0 <= y_a_93 <= 39
 0 <= y_a_94 <= 18
 0 <= y_a_95 <= 27
 0 <= y_a_96 <= 31
 0 <= y_a_97 <= 11
 0 <= y_a_98 <= 15
 0 <= y_a_99 <= 37
 0 <= y_a_100 <= 31
 0 <= y_a_101 <= 46
 0 <= y_a_102 <= 11
 0 <= y_a_103 <= 42
 0 <= y_a_104 <= 49
 0 <= y_a_105 <= 31
 0 <= y_a_106 <= 47
 0 <= y_a_107 <= 39
 0 <= y_a_108 <= 18
 0 <= y_a_109 <= 32
 0 <= y_a_110 <= 22
 0 <= y_a_111 <= 24
 0 <= y_a_112 <= 29
 0 <= y_a_113 <= 17
 0 <= y_a_114 <= 12
 0 <= y_a_115 <= 24
 0 <= y_a_116 <= 4
 0 <= y_a_117 <= 30
 0 <= y_a_118 <= 1
 0 <= y_a_119 <= 10
 0 <= y_a_120 <= 9
 0 <= y_a_121 <= 31
 0 <= y_a_122 <= 17
 0 <= y_a_123 <= 19
 0 <= y_a_124 <= 20
 0 <= y_a_125 <= 7
 0 <= y_a_126 <= 44
 0 <= y_a_127 <= 22
 0 <= y_a_128 <= 31
 0 <= y_a_129 <= 14
 0 <= y_a_130 <= 7
 0 <= y_a_131 <= 16
 0 <= y_a_132 <= 41
 0 <= y_a_133 <= 19
 0 <= y_a_134 <= 36
 0 <= y_a_135 <= 29
 0 <= y_a_136 <= 18
 0 <= y_a_137 <= 36
 0 <= y_a_138 <= 17
 0 <= y_a_139 <= 6
 0 <= y_a_140 <= 46
 0 <= y_a_141 <= 2
 0 <= y_a_142 <= 29
 0 <= y_a_143 <= 12
 0 <= y_a_144 <= 5
 0 <= y_a_145 <= 23
 0 <= y_a_146 <= 23
 0 <= y_a_147 <= 48
 0 <= y_a_148 <= 32
 0 <= y_a_149 <= 19
 0 <= y_a_150 <= 4
 0 <= y_a_151 <= 18
 0 <= y_a_152 <= 46
 0 <= y_a_153 <= 36
 0 <= y_a_154 <= 34
 0 <= y_a_155 <= 47
 0 <= y_a_156 <= 24
 0 <= y_a_157 <= 14
 0 <= y_a_158 <= 43
 0 <= y_a_159 <= 5
 0 <= y_a_160 <= 34
 0 <= y_a_161 <= 8
 0 <= y_a_162 <= 39
 0 <= y_a_163 <= 13
 0 <= y_a_164 <= 30
 0 <= y_a_165 <= 5
 0 <= y_a_166 <= 43
 0 <= y_a_167 <= 38
 0 <= y_a_168 <= 27
 0 <= y_a_169 <= 25
 0 <= y_a_170 <= 31
 0 <= y_a_171 <= 20
 0 <= y_a_172 <= 1
 0 <= y_a_173 <= 42
 0 <= y_a_174 <= 35
 0 <= y_a_175 <= 47
 0 <= y_a_176 <= 38
 0 <= y_a_177 <= 30
 0 <= y_a_178 <= 23
 0 <= y_a_179 <= 15
 0 <= y_a_180 <= 45
 0 <= y_a_181 <= 3
 0 <= y_a_182 <= 4
 0 <= y_a_183 <= 5
 0 <= y_a_184 <= 15
 0 <= y_a_185 <= 30
 0 <= y_a_186 <= 35
 0 <= y_a_239 <= 50000000
 0 <= y_a_187 <= 30
 0 <= y_a_188 <= 28
 0 <= y_a_189 <= 4
 0 <= y_a_190 <= 22
 0 <= y_a_191 <= 45
 0 <= y_a_192 <= 9
 0 <= y_a_193 <= 49
 0 <= y_a_194 <= 46
 0 <= y_a_195 <= 37
 0 <= y_a_196 <= 22
 0 <= y_a_197 <= 45
 0 <= y_a_198 <= 23
 0 <= y_a_199 <= 29
 0 <= y_a_200 <= 6
 0 <= y_a_201 <= 42
 0 <= y_a_202 <= 26
 0 <= y_a_203 <= 22
 0 <= y_a_204 <= 32
 0 <= y_a_205 <= 49
 0 <= y_a_206 <= 32
 0 <= y_a_207 <= 48
 0 <= y_a_208 <= 20
 0 <= y_a_209 <= 19
 0 <= y_a_210 <= 20
 0 <= y_a_211 <= 18
 0 <= y_a_212 <= 8
 0 <= y_a_213 <= 20
 0 <= y_a_214 <= 7
 0 <= y_a_215 <= 20
 0 <= y_a_216 <= 39
 0 <= y_a_217 <= 22
 0 <= y_a_218 <= 35
 0 <= y_a_219 <= 4
 0 <= y_a_238 <= 50000000
 0 <= y_a_220 <= 43
 0 <= y_a_221 <= 5
 0 <= y_a_222 <= 3
 0 <= y_a_241 <= 50000000
 0 <= y_a_223 <= 29
 0 <= y_a_224 <= 48
 0 <= y_a_225 <= 22
 0 <= y_a_226 <= 17
 0 <= y_a_237 <= 50000000
 0 <= y_a_243 <= 10000
 0 <= x_a_0 <= 1
 0 <= x_a_1 <= 1
 0 <= x_a_2 <= 1
 0 <= x_a_3 <= 1
 0 <= x_a_4 <= 1
 0 <= x_a_5 <= 1
 0 <= x_a_6 <= 1
 0 <= x_a_7 <= 1
 0 <= x_a_8 <= 1
 0 <= x_a_9 <= 1
 0 <= x_a_10 <= 1
 0 <= x_a_11 <= 1
 0 <= x_a_12 <= 1
 0 <= x_a_13 <= 1
 0 <= x_a_14 <= 1
 0 <= x_a_15 <= 1
 0 <= x_a_16 <= 1
 0 <= x_a_17 <= 1
 0 <= x_a_18 <= 1
 0 <= x_a_19 <= 1
 0 <= x_a_20 <= 1
 0 <= x_a_21 <= 1
 0 <= x_a_22 <= 1
 0 <= x_a_23 <= 1
 0 <= x_a_24 <= 1
 0 <= x_a_25 <= 1
 0 <= x_a_26 <= 1
 0 <= x_a_27 <= 1
 0 <= x_a_28 <= 1
 0 <= x_a_29 <= 1
 0 <= x_a_30 <= 1
 0 <= x_a_31 <= 1
 0 <= x_a_32 <= 1
 0 <= x_a_33 <= 1
 0 <= x_a_34 <= 1
 0 <= x_a_35 <= 1
 0 <= x_a_36 <= 1
 0 <= x_a_37 <= 1
 0 <= x_a_38 <= 1
 0 <= x_a_39 <= 1
 0 <= x_a_40 <= 1
 0 <= x_a_41 <= 1
 0 <= x_a_42 <= 1
 0 <= x_a_43 <= 1
 0 <= x_a_44 <= 1
 0 <= x_a_45 <= 1
 0 <= x_a_46 <= 1
 0 <= x_a_47 <= 1
 0 <= x_a_48 <= 1
 0 <= x_a_49 <= 1
 0 <= x_a_50 <= 1
 0 <= x_a_51 <= 1
 0 <= x_a_52 <= 1
 0 <= x_a_53 <= 1
 0 <= x_a_54 <= 1
 0 <= x_a_55 <= 1
 0 <= x_a_56 <= 1
 0 <= x_a_57 <= 1
 0 <= x_a_58 <= 1
 0 <= x_a_59 <= 1
 0 <= x_a_60 <= 1
 0 <= x_a_61 <= 1
 0 <= x_a_62 <= 1
 0 <= x_a_63 <= 1
 0 <= x_a_64 <= 1
 0 <= x_a_65 <= 1
 0 <= x_a_66 <= 1
 0 <= x_a_67 <= 1
 0 <= x_a_68 <= 1
 0 <= x_a_69 <= 1
 0 <= x_a_70 <= 1
 0 <= x_a_71 <= 1
 0 <= x_a_72 <= 1
 0 <= x_a_73 <= 1
 0 <= x_a_74 <= 1
 0 <= x_a_75 <= 1
 0 <= x_a_76 <= 1
 0 <= x_a_77 <= 1
 0 <= x_a_78 <= 1
 0 <= x_a_79 <= 1
 0 <= x_a_80 <= 1
 0 <= x_a_81 <= 1
 0 <= x_a_82 <= 1
 0 <= x_a_83 <= 1
 0 <= x_a_84 <= 1
 0 <= x_a_85 <= 1
 0 <= x_a_86 <= 1
 0 <= x_a_87 <= 1
 0 <= x_a_88 <= 1
 0 <= x_a_89 <= 1
 0 <= x_a_90 <= 1
 0 <= x_a_91 <= 1
 0 <= x_a_92 <= 1
 0 <= x_a_93 <= 1
 0 <= x_a_94 <= 1
 0 <= x_a_95 <= 1
 0 <= x_a_96 <= 1
 0 <= x_a_97 <= 1
 0 <= x_a_98 <= 1
 0 <= x_a_99 <= 1
 0 <= x_a_100 <= 1
 0 <= x_a_101 <= 1
 0 <= x_a_102 <= 1
 0 <= x_a_103 <= 1
 0 <= x_a_104 <= 1
 0 <= x_a_105 <= 1
 0 <= x_a_106 <= 1
 0 <= x_a_107 <= 1
 0 <= x_a_108 <= 1
 0 <= x_a_109 <= 1
 0 <= x_a_110 <= 1
 0 <= x_a_111 <= 1
 0 <= x_a_112 <= 1
 0 <= x_a_113 <= 1
 0 <= x_a_114 <= 1
 0 <= x_a_115 <= 1
 0 <= x_a_116 <= 1
 0 <= x_a_117 <= 1
 0 <= x_a_118 <= 1
 0 <= x_a_119 <= 1
 0 <= x_a_120 <= 1
 0 <= x_a_121 <= 1
 0 <= x_a_122 <= 1
 0 <= x_a_123 <= 1
 0 <= x_a_124 <= 1
 0 <= x_a_125 <= 1
 0 <= x_a_126 <= 1
 0 <= x_a_127 <= 1
 0 <= x_a_128 <= 1
 0 <= x_a_129 <= 1
 0 <= x_a_130 <= 1
 0 <= x_a_131 <= 1
 0 <= x_a_132 <= 1
 0 <= x_a_133 <= 1
 0 <= x_a_134 <= 1
 0 <= x_a_135 <= 1
 0 <= x_a_136 <= 1
 0 <= x_a_137 <= 1
 0 <= x_a_138 <= 1
 0 <= x_a_139 <= 1
 0 <= x_a_140 <= 1
 0 <= x_a_141 <= 1
 0 <= x_a_142 <= 1
 0 <= x_a_143 <= 1
 0 <= x_a_144 <= 1
 0 <= x_a_145 <= 1
 0 <= x_a_146 <= 1
 0 <= x_a_147 <= 1
 0 <= x_a_148 <= 1
 0 <= x_a_149 <= 1
 0 <= x_a_150 <= 1
 0 <= x_a_151 <= 1
 0 <= x_a_152 <= 1
 0 <= x_a_153 <= 1
 0 <= x_a_154 <= 1
 0 <= x_a_155 <= 1
 0 <= x_a_156 <= 1
 0 <= x_a_157 <= 1
 0 <= x_a_158 <= 1
 0 <= x_a_159 <= 1
 0 <= x_a_160 <= 1
 0 <= x_a_161 <= 1
 0 <= x_a_162 <= 1
 0 <= x_a_163 <= 1
 0 <= x_a_164 <= 1
 0 <= x_a_165 <= 1
 0 <= x_a_166 <= 1
 0 <= x_a_167 <= 1
 0 <= x_a_168 <= 1
 0 <= x_a_169 <= 1
 0 <= x_a_170 <= 1
 0 <= x_a_171 <= 1
 0 <= x_a_172 <= 1
 0 <= x_a_173 <= 1
 0 <= x_a_174 <= 1
 0 <= x_a_175 <= 1
 0 <= x_a_176 <= 1
 0 <= x_a_177 <= 1
 0 <= x_a_178 <= 1
 0 <= x_a_179 <= 1
 0 <= x_a_180 <= 1
 0 <= x_a_181 <= 1
 0 <= x_a_182 <= 1
 0 <= x_a_183 <= 1
 0 <= x_a_184 <= 1
 0 <= x_a_185 <= 1
 0 <= x_a_186 <= 1
 0 <= x_a_187 <= 1
 0 <= x_a_188 <= 1
 0 <= x_a_189 <= 1
 0 <= x_a_190 <= 1
 0 <= x_a_191 <= 1
 0 <= x_a_192 <= 1
 0 <= x_a_193 <= 1
 0 <= x_a_194 <= 1
 0 <= x_a_195 <= 1
 0 <= x_a_196 <= 1
 0 <= x_a_197 <= 1
 0 <= x_a_198 <= 1
 0 <= x_a_199 <= 1
 0 <= x_a_200 <= 1
 0 <= x_a_201 <= 1
 0 <= x_a_202 <= 1
 0 <= x_a_203 <= 1
 0 <= x_a_204 <= 1
 0 <= x_a_205 <= 1
 0 <= x_a_206 <= 1
 0 <= x_a_207 <= 1
 0 <= x_a_208 <= 1
 0 <= x_a_209 <= 1
 0 <= x_a_210 <= 1
 0 <= x_a_211 <= 1
 0 <= x_a_212 <= 1
 0 <= x_a_213 <= 1
 0 <= x_a_214 <= 1
 0 <= x_a_215 <= 1
 0 <= x_a_216 <= 1
 0 <= x_a_217 <= 1
 0 <= x_a_218 <= 1
 0 <= x_a_219 <= 1
 0 <= x_a_220 <= 1
 0 <= x_a_221 <= 1
 0 <= x_a_222 <= 1
 0 <= x_a_223 <= 1
 0 <= x_a_224 <= 1
 0 <= x_a_225 <= 1
 0 <= x_a_226 <= 1
 0 <= x_a_227 <= 1
 0 <= x_a_228 <= 1
 0 <= x_a_229 <= 1
 0 <= x_a_230 <= 1
 0 <= x_a_231 <= 1
 0 <= x_a_232 <= 1
 0 <= x_a_233 <= 1
 0 <= x_a_234 <= 1
 0 <= x_a_235 <= 1
 0 <= x_a_236 <= 1
 0 <= x_a_237 <= 1
 0 <= x_a_238 <= 1
 0 <= x_a_239 <= 1
 0 <= x_a_240 <= 1
 0 <= x_a_241 <= 1
 0 <= x_a_242 <= 1
 0 <= x_a_243 <= 1
Binaries
 y_a_14  y_a_84  y_a_118  y_a_172  x_a_0  x_a_1  x_a_2  x_a_3  x_a_4  x_a_5 
 x_a_6  x_a_7  x_a_8  x_a_9  x_a_10  x_a_11  x_a_12  x_a_13  x_a_14  x_a_15 
 x_a_16  x_a_17  x_a_18  x_a_19  x_a_20  x_a_21  x_a_22  x_a_23  x_a_24 
 x_a_25  x_a_26  x_a_27  x_a_28  x_a_29  x_a_30  x_a_31  x_a_32  x_a_33 
 x_a_34  x_a_35  x_a_36  x_a_37  x_a_38  x_a_39  x_a_40  x_a_41  x_a_42 
 x_a_43  x_a_44  x_a_45  x_a_46  x_a_47  x_a_48  x_a_49  x_a_50  x_a_51 
 x_a_52  x_a_53  x_a_54  x_a_55  x_a_56  x_a_57  x_a_58  x_a_59  x_a_60 
 x_a_61  x_a_62  x_a_63  x_a_64  x_a_65  x_a_66  x_a_67  x_a_68  x_a_69 
 x_a_70  x_a_71  x_a_72  x_a_73  x_a_74  x_a_75  x_a_76  x_a_77  x_a_78 
 x_a_79  x_a_80  x_a_81  x_a_82  x_a_83  x_a_84  x_a_85  x_a_86  x_a_87 
 x_a_88  x_a_89  x_a_90  x_a_91  x_a_92  x_a_93  x_a_94  x_a_95  x_a_96 
 x_a_97  x_a_98  x_a_99  x_a_100  x_a_101  x_a_102  x_a_103  x_a_104  x_a_105 
 x_a_106  x_a_107  x_a_108  x_a_109  x_a_110  x_a_111  x_a_112  x_a_113 
 x_a_114  x_a_115  x_a_116  x_a_117  x_a_118  x_a_119  x_a_120  x_a_121 
 x_a_122  x_a_123  x_a_124  x_a_125  x_a_126  x_a_127  x_a_128  x_a_129 
 x_a_130  x_a_131  x_a_132  x_a_133  x_a_134  x_a_135  x_a_136  x_a_137 
 x_a_138  x_a_139  x_a_140  x_a_141  x_a_142  x_a_143  x_a_144  x_a_145 
 x_a_146  x_a_147  x_a_148  x_a_149  x_a_150  x_a_151  x_a_152  x_a_153 
 x_a_154  x_a_155  x_a_156  x_a_157  x_a_158  x_a_159  x_a_160  x_a_161 
 x_a_162  x_a_163  x_a_164  x_a_165  x_a_166  x_a_167  x_a_168  x_a_169 
 x_a_170  x_a_171  x_a_172  x_a_173  x_a_174  x_a_175  x_a_176  x_a_177 
 x_a_178  x_a_179  x_a_180  x_a_181  x_a_182  x_a_183  x_a_184  x_a_185 
 x_a_186  x_a_187  x_a_188  x_a_189  x_a_190  x_a_191  x_a_192  x_a_193 
 x_a_194  x_a_195  x_a_196  x_a_197  x_a_198  x_a_199  x_a_200  x_a_201 
 x_a_202  x_a_203  x_a_204  x_a_205  x_a_206  x_a_207  x_a_208  x_a_209 
 x_a_210  x_a_211  x_a_212  x_a_213  x_a_214  x_a_215  x_a_216  x_a_217 
 x_a_218  x_a_219  x_a_220  x_a_221  x_a_222  x_a_223  x_a_224  x_a_225 
 x_a_226  x_a_227  x_a_228  x_a_229  x_a_230  x_a_231  x_a_232  x_a_233 
 x_a_234  x_a_235  x_a_236  x_a_237  x_a_238  x_a_239  x_a_240  x_a_241 
 x_a_242  x_a_243 
Generals
 y_a_227  y_a_228  y_a_229  y_a_230  y_a_231  y_a_232  y_a_233  y_a_234  y_a_0 
 y_a_1  y_a_2  y_a_3  y_a_4  y_a_5  y_a_6  y_a_7  y_a_8  y_a_9  y_a_10  y_a_11 
 y_a_12  y_a_13  y_a_15  y_a_16  y_a_17  y_a_18  y_a_19  y_a_20  y_a_21 
 y_a_22  y_a_23  y_a_235  y_a_236  y_a_24  y_a_25  y_a_26  y_a_27  y_a_28 
 y_a_29  y_a_30  y_a_31  y_a_32  y_a_33  y_a_34  y_a_35  y_a_36  y_a_37 
 y_a_38  y_a_39  y_a_40  y_a_41  y_a_42  y_a_43  y_a_44  y_a_45  y_a_46 
 y_a_47  y_a_48  y_a_49  y_a_50  y_a_51  y_a_52  y_a_53  y_a_54  y_a_55 
 y_a_56  y_a_57  y_a_58  y_a_59  y_a_60  y_a_61  y_a_62  y_a_63  y_a_64 
 y_a_65  y_a_66  y_a_67  y_a_68  y_a_69  y_a_70  y_a_71  y_a_72  y_a_73 
 y_a_242  y_a_74  y_a_75  y_a_76  y_a_77  y_a_78  y_a_79  y_a_80  y_a_81 
 y_a_82  y_a_83  y_a_240  y_a_85  y_a_86  y_a_87  y_a_88  y_a_89  y_a_90 
 y_a_91  y_a_92  y_a_93  y_a_94  y_a_95  y_a_96  y_a_97  y_a_98  y_a_99 
 y_a_100  y_a_101  y_a_102  y_a_103  y_a_104  y_a_105  y_a_106  y_a_107 
 y_a_108  y_a_109  y_a_110  y_a_111  y_a_112  y_a_113  y_a_114  y_a_115 
 y_a_116  y_a_117  y_a_119  y_a_120  y_a_121  y_a_122  y_a_123  y_a_124 
 y_a_125  y_a_126  y_a_127  y_a_128  y_a_129  y_a_130  y_a_131  y_a_132 
 y_a_133  y_a_134  y_a_135  y_a_136  y_a_137  y_a_138  y_a_139  y_a_140 
 y_a_141  y_a_142  y_a_143  y_a_144  y_a_145  y_a_146  y_a_147  y_a_148 
 y_a_149  y_a_150  y_a_151  y_a_152  y_a_153  y_a_154  y_a_155  y_a_156 
 y_a_157  y_a_158  y_a_159  y_a_160  y_a_161  y_a_162  y_a_163  y_a_164 
 y_a_165  y_a_166  y_a_167  y_a_168  y_a_169  y_a_170  y_a_171  y_a_173 
 y_a_174  y_a_175  y_a_176  y_a_177  y_a_178  y_a_179  y_a_180  y_a_181 
 y_a_182  y_a_183  y_a_184  y_a_185  y_a_186  y_a_239  y_a_187  y_a_188 
 y_a_189  y_a_190  y_a_191  y_a_192  y_a_193  y_a_194  y_a_195  y_a_196 
 y_a_197  y_a_198  y_a_199  y_a_200  y_a_201  y_a_202  y_a_203  y_a_204 
 y_a_205  y_a_206  y_a_207  y_a_208  y_a_209  y_a_210  y_a_211  y_a_212 
 y_a_213  y_a_214  y_a_215  y_a_216  y_a_217  y_a_218  y_a_219  y_a_238 
 y_a_220  y_a_221  y_a_222  y_a_241  y_a_223  y_a_224  y_a_225  y_a_226 
 y_a_237  y_a_243 
End
